SP/farmer_SP.out
: _objname    _obj     :=
1   profit   108390
;

:            _varname            _var _var.lb   _var.ub       _var.rc       :=
1    "area['wheat']"              170     0     Infinity     0
2    "area['corn']"                80     0     Infinity     0
3    "area['beets']"              250     0     Infinity     4.26326e-14
4    "sell['wheat','below']"      140     0     Infinity     0
5    "sell['wheat','average']"    225     0     Infinity     0
6    "sell['wheat','above']"      310     0     Infinity     0
7    "sell['corn','below']"         0     0     Infinity   -20
8    "sell['corn','average']"       0     0     Infinity    -2.33333
9    "sell['corn','above']"        48     0     Infinity     0
10   "sell['beets','below']"     4000     0         6000     0
11   "sell['beets','average']"   5000     0         6000     0
12   "sell['beets','above']"     6000     0         6000     0
13   "sellExcess['below']"          0     0     Infinity    -8.66666
14   "sellExcess['average']"        0     0     Infinity     0
15   "sellExcess['above']"          0     0     Infinity     0
16   "buy['wheat','below']"         0     0     Infinity   -22.6666
17   "buy['wheat','average']"       0     0     Infinity   -22.6666
18   "buy['wheat','above']"         0     0     Infinity   -22.6666
19   "buy['corn','below']"         48     0     Infinity     0
20   "buy['corn','average']"        0     0     Infinity   -17.6666
21   "buy['corn','above']"          0     0     Infinity   -20
22   "buy['beets','below']"         0     0     Infinity   -33.3333
23   "buy['beets','average']"       0     0     Infinity   -24.6666
24   "buy['beets','above']"         0     0     Infinity   -32.375
;

:            _varname             _var.down   _var.current     _var.up       :=
1    "area['wheat']"               -157         -150           -96.9999
2    "area['corn']"                -283         -230          -223
3    "area['beets']"               -445         -260          -237
4    "sell['wheat','below']"         53.1666      56.6666       79.3333
5    "sell['wheat','average']"       53.8666      56.6666       77.8666
6    "sell['wheat','above']"         54.3333      56.6666       74.3333
7    "sell['corn','below']"      -1e+20           49.9999       69.9999
8    "sell['corn','average']"    -1e+20           49.9999       52.3333
9    "sell['corn','above']"          35.2777      49.9999       51.9444
10   "sell['beets','below']"          3.33333     12            13.4375
11   "sell['beets','average']"        3.33333     12            13.15
12   "sell['beets','above']"          4.29166     12         1e+20
13   "sellExcess['below']"       -1e+20            3.33333      12
14   "sellExcess['average']"          0            3.33333      12
15   "sellExcess['above']"            0            3.33333       4.29166
16   "buy['wheat','below']"      -1e+20          -79.3333      -56.6666
17   "buy['wheat','average']"    -1e+20          -79.3333      -56.6666
18   "buy['wheat','above']"      -1e+20          -79.3333      -56.6666
19   "buy['corn','below']"          -72.9166     -69.9999      -49.9999
20   "buy['corn','average']"     -1e+20          -69.9999      -52.3333
21   "buy['corn','above']"       -1e+20          -69.9999      -49.9999
22   "buy['beets','below']"      -1e+20          -33.3333        0
23   "buy['beets','average']"    -1e+20          -33.3333       -8.66666
24   "buy['beets','above']"      -1e+20          -33.3333       -0.958332
;

:                _conname             _con.slack   _con.dual     :=
1    totalArea                               0     275
2    "requirement['wheat','below']"          0     -56.6666
3    "requirement['wheat','average']"        0     -56.6666
4    "requirement['wheat','above']"          0     -56.6666
5    "requirement['corn','below']"           0     -69.9999
6    "requirement['corn','average']"         0     -52.3333
7    "requirement['corn','above']"           0     -49.9999
8    "requirement['beets','below']"          0       0
9    "requirement['beets','average']"        0      -8.66666
10   "requirement['beets','above']"          0      -0.958332
11   "quota['below']"                     2000       0
12   "quota['average']"                   1000       0
13   "quota['above']"                        0       7.70833
14   "sellBeets['below']"                    0      12
15   "sellBeets['average']"                  0       3.33333
16   "sellBeets['above']"                    0       3.33333
;

:                _conname             _con.down _con.current _con.up    :=
1    totalArea                             430       500       1e+20
2    "requirement['wheat','below']"     -1e+20       200         340
3    "requirement['wheat','average']"   -1e+20       200         425
4    "requirement['wheat','above']"     -1e+20       200         510
5    "requirement['corn','below']"         192       240       1e+20
6    "requirement['corn','average']"       200       240         300
7    "requirement['corn','above']"      -1e+20       240         288
8    "requirement['beets','below']"     -1e+20         0           0
9    "requirement['beets','average']"        0         0        5000
10   "requirement['beets','above']"          0         0        1200
11   "quota['below']"                        0         0           0
12   "quota['average']"                      0         0           0
13   "quota['above']"                        0         0           0
14   "sellBeets['below']"                -4000         0           0
15   "sellBeets['average']"                  0         0       1e+20
16   "sellBeets['above']"                    0         0       1e+20
;

